objective value:                                  794
delta[0,22]*                                        4 	(obj:116)
delta[0,36]*                                        5 	(obj:40)
delta[1,41]*                                       10 	(obj:13)
mu[0,22,22]*                         3.92473908321547 	(obj:0)
mu[0,36,36]*                         4.83279610248347 	(obj:0)
mu[1,41,41]*                                       10 	(obj:0)
